
Gurobi 9.1.2 (win64, Python) logging started Tue May 25 13:59:05 2021

Academic license - for non-commercial use only - expires 2021-07-24
Using license file C:\Users\prith\gurobi.lic
Set parameter LogFile to value gurobi.log
